NAME: dataset10
TYPE: TSP
COMMENT: 10 random locations
DIMENSION: 10
EDGE_WEIGHT_TYPE: EUC_2D
NODE_COORD_SECTION
1 380.5763073639 139.5509499136
2 322.6594301221 79.440468445
3 143.8294689604 127.9683377309
4 237.4156219865 54.0027137042
5 351.289009498 66.3425579656
6 225.0521920668 226.2295081967
7 107.7908217716 113.0123617437
8 120.8981001727 271.8040621266
9 60.9450337512 190.1271503366
10 246.9746258946 21.266427718
EOF
